(declare-const _tmp__init Int)
(declare-const x_init Int)
(declare-const y_init Int)
(declare-const z_init Int)
(declare-const c_0 Int)
(declare-const c_1 Int)
(declare-const c_2 Int)
(declare-const c_3 Int)
(declare-const c_4 Int)
(declare-const c_5 Int)
(declare-const c_6 Int)
(declare-const c_7 Int)
(declare-const c_8 Int)
(declare-const c_9 Int)
(declare-const c_10 Int)
(declare-const c_11 Int)
(declare-const c_12 Int)
(declare-const c_13 Int)
(declare-const c_14 Int)
(declare-const c_15 Int)
(declare-const c_16 Int)
(declare-const c_17 Int)
(declare-const c_18 Int)
(declare-const c_19 Int)
(declare-const c_20 Int)
(declare-const c_21 Int)
(declare-const c_22 Int)
(declare-const c_23 Int)
(declare-const c_24 Int)
(declare-const c_25 Int)
(declare-const c_26 Int)
(declare-const c_27 Int)
(declare-const c_28 Int)
(declare-const c_29 Int)
(declare-const c_30 Int)
(declare-const c_31 Int)
(declare-const c_32 Int)
(declare-const c_33 Int)
(declare-const c_34 Int)
(declare-const c_35 Int)
(declare-const c_36 Int)
(declare-const c_37 Int)
(declare-const c_38 Int)
(declare-const c_39 Int)
(declare-const c_40 Int)
(assert (< c_16 0))
(assert (and (>= (+ (* (- 1) _tmp__init ) (* 1 c_17 ) ) 0) (>= (+ (* 1 _tmp__init ) (* (- 1) c_17 ) ) 0) (>= (+ (* 1 c_18 ) (* (- 1) x_init ) ) 0) (>= (+ (* (- 1) c_18 ) (* 1 x_init ) ) 0) (>= (+ (* 1 c_19 ) (* (- 1) y_init ) ) 0) (>= (+ (* (- 1) c_19 ) (* 1 y_init ) ) 0) (>= (+ (* 1 c_20 ) (* (- 1) z_init ) ) 0) (>= (+ (* (- 1) c_20 ) (* 1 z_init ) ) 0) ))
(assert (forall ((_tmp_ Real) (x Real) (y Real) (z Real) (_r_0 Real) (_r_1 Real) (_r_2 Real) (_r_3 Real) ) (=> (and (>= (+ (* (- 1) 1) (* (- 1) _tmp_ c_22 ) (* (- 1) c_21 ) (* (- 1) c_23 x ) (* (- 1) c_24 y ) (* (- 1) c_25 z ) ) 0) (>= (+ (* (- 1) _tmp_ ) (* 1 c_17 ) ) 0) (>= (+ (* 1 _tmp_ ) (* (- 1) c_17 ) ) 0) (>= (+ (* 1 c_18 ) (* (- 1) x ) ) 0) (>= (+ (* (- 1) c_18 ) (* 1 x ) ) 0) (>= (+ (* 1 c_19 ) (* (- 1) y ) ) 0) (>= (+ (* (- 1) c_19 ) (* 1 y ) ) 0) (>= (+ (* 1 c_20 ) (* (- 1) z ) ) 0) (>= (+ (* (- 1) c_20 ) (* 1 z ) ) 0) ) (>= (+ (* 1 _tmp_ c_32 ) (* 1 c_31 ) (* 1 c_33 x ) (* 1 c_34 y ) (* 1 c_35 z ) ) 0) )))
(assert (forall ((_tmp_ Real) (x Real) (y Real) (z Real) (_r_0 Real) (_r_1 Real) (_r_2 Real) (_r_3 Real) ) (=> (and (>= (+ (* (- 1) 1) (* (- 1) _tmp_ c_22 ) (* (- 1) c_21 ) (* (- 1) c_23 x ) (* (- 1) c_24 y ) (* (- 1) c_25 z ) ) 0) (>= (+ (* (- 1) _tmp_ ) (* 1 c_17 ) ) 0) (>= (+ (* 1 _tmp_ ) (* (- 1) c_17 ) ) 0) (>= (+ (* 1 c_18 ) (* (- 1) x ) ) 0) (>= (+ (* (- 1) c_18 ) (* 1 x ) ) 0) (>= (+ (* 1 c_19 ) (* (- 1) y ) ) 0) (>= (+ (* (- 1) c_19 ) (* 1 y ) ) 0) (>= (+ (* 1 c_20 ) (* (- 1) z ) ) 0) (>= (+ (* (- 1) c_20 ) (* 1 z ) ) 0) ) (>= (+ (* 1 _tmp_ c_37 ) (* 1 c_36 ) (* 1 c_38 x ) (* 1 c_39 y ) (* 1 c_40 z ) ) 0) )))
(assert (forall ((_tmp_ Real) (x Real) (y Real) (z Real) (_r_0 Real) (_r_1 Real) (_r_2 Real) (_r_3 Real) ) (=> (and (>= (+ (* (- 1) 1) (* (- 1) _tmp_ c_27 ) (* (- 1) c_26 ) (* (- 1) c_28 x ) (* (- 1) c_29 y ) (* (- 1) c_30 z ) ) 0) (>= (+ (* (- 1) _tmp_ ) (* 1 c_17 ) ) 0) (>= (+ (* 1 _tmp_ ) (* (- 1) c_17 ) ) 0) (>= (+ (* 1 c_18 ) (* (- 1) x ) ) 0) (>= (+ (* (- 1) c_18 ) (* 1 x ) ) 0) (>= (+ (* 1 c_19 ) (* (- 1) y ) ) 0) (>= (+ (* (- 1) c_19 ) (* 1 y ) ) 0) (>= (+ (* 1 c_20 ) (* (- 1) z ) ) 0) (>= (+ (* (- 1) c_20 ) (* 1 z ) ) 0) ) (>= (+ (* 1 _tmp_ c_32 ) (* 1 c_31 ) (* 1 c_33 x ) (* 1 c_34 y ) (* 1 c_35 z ) ) 0) )))
(assert (forall ((_tmp_ Real) (x Real) (y Real) (z Real) (_r_0 Real) (_r_1 Real) (_r_2 Real) (_r_3 Real) ) (=> (and (>= (+ (* (- 1) 1) (* (- 1) _tmp_ c_27 ) (* (- 1) c_26 ) (* (- 1) c_28 x ) (* (- 1) c_29 y ) (* (- 1) c_30 z ) ) 0) (>= (+ (* (- 1) _tmp_ ) (* 1 c_17 ) ) 0) (>= (+ (* 1 _tmp_ ) (* (- 1) c_17 ) ) 0) (>= (+ (* 1 c_18 ) (* (- 1) x ) ) 0) (>= (+ (* (- 1) c_18 ) (* 1 x ) ) 0) (>= (+ (* 1 c_19 ) (* (- 1) y ) ) 0) (>= (+ (* (- 1) c_19 ) (* 1 y ) ) 0) (>= (+ (* 1 c_20 ) (* (- 1) z ) ) 0) (>= (+ (* (- 1) c_20 ) (* 1 z ) ) 0) ) (>= (+ (* 1 _tmp_ c_37 ) (* 1 c_36 ) (* 1 c_38 x ) (* 1 c_39 y ) (* 1 c_40 z ) ) 0) )))
(assert (forall ((_tmp_ Real) (x Real) (y Real) (z Real) (_r_0 Real) (_r_1 Real) (_r_2 Real) (_r_3 Real) ) (=> (and (>= (+ (* (- 1) 1) (* (- 1) _r_3 c_22 ) (* (- 1) c_21 ) (* 1 c_23 ) (* (- 1) c_23 x ) (* (- 1) c_24 y ) (* (- 1) c_25 z ) ) 0) (>= (* (- 1) _r_3 ) 0) (>= (+ (* 1 _r_3 ) (* (- 1) _tmp_ c_12 ) (* (- 1) c_13 x ) (* (- 1) c_14 y ) (* (- 1) c_15 z ) ) 0) (>= (+ (* (- 1) _r_3 ) (* 1 _tmp_ c_12 ) (* 1 c_13 x ) (* 1 c_14 y ) (* 1 c_15 z ) ) 0) (>= (+ (* (- 1) 1) (* 1 x ) ) 0) (>= (+ (* (- 1) 1) (* 1 y ) ) 0) (>= (+ (* (- 1) 1) (* 1 z ) ) 0) (>= (+ (* 1 _tmp_ c_22 ) (* 1 c_21 ) (* 1 c_23 x ) (* 1 c_24 y ) (* 1 c_25 z ) ) 0) (>= (+ (* 1 _tmp_ c_27 ) (* 1 c_26 ) (* 1 c_28 x ) (* 1 c_29 y ) (* 1 c_30 z ) ) 0) ) (>= (+ (* 1 _r_3 c_32 ) (* 1 c_31 ) (* (- 1) c_33 ) (* 1 c_33 x ) (* 1 c_34 y ) (* 1 c_35 z ) ) 0) )))
(assert (forall ((_tmp_ Real) (x Real) (y Real) (z Real) (_r_0 Real) (_r_1 Real) (_r_2 Real) (_r_3 Real) ) (=> (and (>= (+ (* (- 1) 1) (* (- 1) _r_3 c_22 ) (* (- 1) c_21 ) (* 1 c_23 ) (* (- 1) c_23 x ) (* (- 1) c_24 y ) (* (- 1) c_25 z ) ) 0) (>= (* (- 1) _r_3 ) 0) (>= (+ (* 1 _r_3 ) (* (- 1) _tmp_ c_12 ) (* (- 1) c_13 x ) (* (- 1) c_14 y ) (* (- 1) c_15 z ) ) 0) (>= (+ (* (- 1) _r_3 ) (* 1 _tmp_ c_12 ) (* 1 c_13 x ) (* 1 c_14 y ) (* 1 c_15 z ) ) 0) (>= (+ (* (- 1) 1) (* 1 x ) ) 0) (>= (+ (* (- 1) 1) (* 1 y ) ) 0) (>= (+ (* (- 1) 1) (* 1 z ) ) 0) (>= (+ (* 1 _tmp_ c_22 ) (* 1 c_21 ) (* 1 c_23 x ) (* 1 c_24 y ) (* 1 c_25 z ) ) 0) (>= (+ (* 1 _tmp_ c_27 ) (* 1 c_26 ) (* 1 c_28 x ) (* 1 c_29 y ) (* 1 c_30 z ) ) 0) ) (>= (+ (* 1 _r_3 c_37 ) (* 1 c_36 ) (* (- 1) c_38 ) (* 1 c_38 x ) (* 1 c_39 y ) (* 1 c_40 z ) ) 0) )))
(assert (forall ((_tmp_ Real) (x Real) (y Real) (z Real) (_r_0 Real) (_r_1 Real) (_r_2 Real) (_r_3 Real) ) (=> (and (>= (+ (* (- 1) 1) (* (- 1) _r_3 c_27 ) (* (- 1) c_26 ) (* 1 c_28 ) (* (- 1) c_28 x ) (* (- 1) c_29 y ) (* (- 1) c_30 z ) ) 0) (>= (* (- 1) _r_3 ) 0) (>= (+ (* 1 _r_3 ) (* (- 1) _tmp_ c_12 ) (* (- 1) c_13 x ) (* (- 1) c_14 y ) (* (- 1) c_15 z ) ) 0) (>= (+ (* (- 1) _r_3 ) (* 1 _tmp_ c_12 ) (* 1 c_13 x ) (* 1 c_14 y ) (* 1 c_15 z ) ) 0) (>= (+ (* (- 1) 1) (* 1 x ) ) 0) (>= (+ (* (- 1) 1) (* 1 y ) ) 0) (>= (+ (* (- 1) 1) (* 1 z ) ) 0) (>= (+ (* 1 _tmp_ c_22 ) (* 1 c_21 ) (* 1 c_23 x ) (* 1 c_24 y ) (* 1 c_25 z ) ) 0) (>= (+ (* 1 _tmp_ c_27 ) (* 1 c_26 ) (* 1 c_28 x ) (* 1 c_29 y ) (* 1 c_30 z ) ) 0) ) (>= (+ (* 1 _r_3 c_32 ) (* 1 c_31 ) (* (- 1) c_33 ) (* 1 c_33 x ) (* 1 c_34 y ) (* 1 c_35 z ) ) 0) )))
(assert (forall ((_tmp_ Real) (x Real) (y Real) (z Real) (_r_0 Real) (_r_1 Real) (_r_2 Real) (_r_3 Real) ) (=> (and (>= (+ (* (- 1) 1) (* (- 1) _r_3 c_27 ) (* (- 1) c_26 ) (* 1 c_28 ) (* (- 1) c_28 x ) (* (- 1) c_29 y ) (* (- 1) c_30 z ) ) 0) (>= (* (- 1) _r_3 ) 0) (>= (+ (* 1 _r_3 ) (* (- 1) _tmp_ c_12 ) (* (- 1) c_13 x ) (* (- 1) c_14 y ) (* (- 1) c_15 z ) ) 0) (>= (+ (* (- 1) _r_3 ) (* 1 _tmp_ c_12 ) (* 1 c_13 x ) (* 1 c_14 y ) (* 1 c_15 z ) ) 0) (>= (+ (* (- 1) 1) (* 1 x ) ) 0) (>= (+ (* (- 1) 1) (* 1 y ) ) 0) (>= (+ (* (- 1) 1) (* 1 z ) ) 0) (>= (+ (* 1 _tmp_ c_22 ) (* 1 c_21 ) (* 1 c_23 x ) (* 1 c_24 y ) (* 1 c_25 z ) ) 0) (>= (+ (* 1 _tmp_ c_27 ) (* 1 c_26 ) (* 1 c_28 x ) (* 1 c_29 y ) (* 1 c_30 z ) ) 0) ) (>= (+ (* 1 _r_3 c_37 ) (* 1 c_36 ) (* (- 1) c_38 ) (* 1 c_38 x ) (* 1 c_39 y ) (* 1 c_40 z ) ) 0) )))
(assert (forall ((_tmp_ Real) (x Real) (y Real) (z Real) (_r_0 Real) (_r_1 Real) (_r_2 Real) (_r_3 Real) ) (=> (and (>= (+ (* (- 1) 1) (* (- 1) _r_3 c_22 ) (* (- 1) c_21 ) (* 1 c_23 ) (* (- 1) c_23 x ) (* (- 1) c_24 y ) (* (- 1) c_25 z ) ) 0) (>= (* (- 1) _r_3 ) 0) (>= (+ (* 1 _r_3 ) (* (- 1) _tmp_ c_12 ) (* (- 1) c_13 x ) (* (- 1) c_14 y ) (* (- 1) c_15 z ) ) 0) (>= (+ (* (- 1) _r_3 ) (* 1 _tmp_ c_12 ) (* 1 c_13 x ) (* 1 c_14 y ) (* 1 c_15 z ) ) 0) (>= (+ (* (- 1) 1) (* 1 x ) ) 0) (>= (+ (* (- 1) 1) (* 1 y ) ) 0) (>= (+ (* (- 1) 1) (* 1 z ) ) 0) (>= (+ (* 1 _tmp_ c_32 ) (* 1 c_31 ) (* 1 c_33 x ) (* 1 c_34 y ) (* 1 c_35 z ) ) 0) (>= (+ (* 1 _tmp_ c_37 ) (* 1 c_36 ) (* 1 c_38 x ) (* 1 c_39 y ) (* 1 c_40 z ) ) 0) ) (>= (+ (* 1 _r_3 c_32 ) (* 1 c_31 ) (* (- 1) c_33 ) (* 1 c_33 x ) (* 1 c_34 y ) (* 1 c_35 z ) ) 0) )))
(assert (forall ((_tmp_ Real) (x Real) (y Real) (z Real) (_r_0 Real) (_r_1 Real) (_r_2 Real) (_r_3 Real) ) (=> (and (>= (+ (* (- 1) 1) (* (- 1) _r_3 c_22 ) (* (- 1) c_21 ) (* 1 c_23 ) (* (- 1) c_23 x ) (* (- 1) c_24 y ) (* (- 1) c_25 z ) ) 0) (>= (* (- 1) _r_3 ) 0) (>= (+ (* 1 _r_3 ) (* (- 1) _tmp_ c_12 ) (* (- 1) c_13 x ) (* (- 1) c_14 y ) (* (- 1) c_15 z ) ) 0) (>= (+ (* (- 1) _r_3 ) (* 1 _tmp_ c_12 ) (* 1 c_13 x ) (* 1 c_14 y ) (* 1 c_15 z ) ) 0) (>= (+ (* (- 1) 1) (* 1 x ) ) 0) (>= (+ (* (- 1) 1) (* 1 y ) ) 0) (>= (+ (* (- 1) 1) (* 1 z ) ) 0) (>= (+ (* 1 _tmp_ c_32 ) (* 1 c_31 ) (* 1 c_33 x ) (* 1 c_34 y ) (* 1 c_35 z ) ) 0) (>= (+ (* 1 _tmp_ c_37 ) (* 1 c_36 ) (* 1 c_38 x ) (* 1 c_39 y ) (* 1 c_40 z ) ) 0) ) (>= (+ (* 1 _r_3 c_37 ) (* 1 c_36 ) (* (- 1) c_38 ) (* 1 c_38 x ) (* 1 c_39 y ) (* 1 c_40 z ) ) 0) )))
(assert (forall ((_tmp_ Real) (x Real) (y Real) (z Real) (_r_0 Real) (_r_1 Real) (_r_2 Real) (_r_3 Real) ) (=> (and (>= (+ (* (- 1) 1) (* (- 1) _r_3 c_27 ) (* (- 1) c_26 ) (* 1 c_28 ) (* (- 1) c_28 x ) (* (- 1) c_29 y ) (* (- 1) c_30 z ) ) 0) (>= (* (- 1) _r_3 ) 0) (>= (+ (* 1 _r_3 ) (* (- 1) _tmp_ c_12 ) (* (- 1) c_13 x ) (* (- 1) c_14 y ) (* (- 1) c_15 z ) ) 0) (>= (+ (* (- 1) _r_3 ) (* 1 _tmp_ c_12 ) (* 1 c_13 x ) (* 1 c_14 y ) (* 1 c_15 z ) ) 0) (>= (+ (* (- 1) 1) (* 1 x ) ) 0) (>= (+ (* (- 1) 1) (* 1 y ) ) 0) (>= (+ (* (- 1) 1) (* 1 z ) ) 0) (>= (+ (* 1 _tmp_ c_32 ) (* 1 c_31 ) (* 1 c_33 x ) (* 1 c_34 y ) (* 1 c_35 z ) ) 0) (>= (+ (* 1 _tmp_ c_37 ) (* 1 c_36 ) (* 1 c_38 x ) (* 1 c_39 y ) (* 1 c_40 z ) ) 0) ) (>= (+ (* 1 _r_3 c_32 ) (* 1 c_31 ) (* (- 1) c_33 ) (* 1 c_33 x ) (* 1 c_34 y ) (* 1 c_35 z ) ) 0) )))
(assert (forall ((_tmp_ Real) (x Real) (y Real) (z Real) (_r_0 Real) (_r_1 Real) (_r_2 Real) (_r_3 Real) ) (=> (and (>= (+ (* (- 1) 1) (* (- 1) _r_3 c_27 ) (* (- 1) c_26 ) (* 1 c_28 ) (* (- 1) c_28 x ) (* (- 1) c_29 y ) (* (- 1) c_30 z ) ) 0) (>= (* (- 1) _r_3 ) 0) (>= (+ (* 1 _r_3 ) (* (- 1) _tmp_ c_12 ) (* (- 1) c_13 x ) (* (- 1) c_14 y ) (* (- 1) c_15 z ) ) 0) (>= (+ (* (- 1) _r_3 ) (* 1 _tmp_ c_12 ) (* 1 c_13 x ) (* 1 c_14 y ) (* 1 c_15 z ) ) 0) (>= (+ (* (- 1) 1) (* 1 x ) ) 0) (>= (+ (* (- 1) 1) (* 1 y ) ) 0) (>= (+ (* (- 1) 1) (* 1 z ) ) 0) (>= (+ (* 1 _tmp_ c_32 ) (* 1 c_31 ) (* 1 c_33 x ) (* 1 c_34 y ) (* 1 c_35 z ) ) 0) (>= (+ (* 1 _tmp_ c_37 ) (* 1 c_36 ) (* 1 c_38 x ) (* 1 c_39 y ) (* 1 c_40 z ) ) 0) ) (>= (+ (* 1 _r_3 c_37 ) (* 1 c_36 ) (* (- 1) c_38 ) (* 1 c_38 x ) (* 1 c_39 y ) (* 1 c_40 z ) ) 0) )))
(assert (forall ((_tmp_ Real) (x Real) (y Real) (z Real) (_r_0 Real) (_r_1 Real) (_r_2 Real) (_r_3 Real) ) (=> (and (>= (+ (* (- 1) 1) (* (- 1) _r_0 c_25 ) (* (- 1) _r_2 c_22 ) (* (- 1) c_21 ) (* (- 1) c_23 x ) (* 1 c_24 ) (* (- 1) c_24 y ) ) 0) (>= (+ (* 1 _r_0 ) (* (- 1) _r_2 c_0 ) (* (- 1) c_1 x ) (* 1 c_2 ) (* (- 1) c_2 y ) (* (- 1) c_3 z ) ) 0) (>= (+ (* (- 1) _r_0 ) (* 1 _r_2 c_0 ) (* 1 c_1 x ) (* (- 1) c_2 ) (* 1 c_2 y ) (* 1 c_3 z ) ) 0) (>= (* (- 1) _r_2 ) 0) (>= (+ (* 1 _r_2 ) (* (- 1) _r_3 c_8 ) (* (- 1) c_10 y ) (* (- 1) c_11 z ) (* (- 1) c_9 x ) ) 0) (>= (+ (* (- 1) _r_2 ) (* 1 _r_3 c_8 ) (* 1 c_10 y ) (* 1 c_11 z ) (* 1 c_9 x ) ) 0) (>= (+ (* (- 1) 1) (* 1 _r_3 ) ) 0) (>= (+ (* 1 _r_3 ) (* (- 1) _tmp_ c_12 ) (* (- 1) c_13 x ) (* (- 1) c_14 y ) (* (- 1) c_15 z ) ) 0) (>= (+ (* (- 1) _r_3 ) (* 1 _tmp_ c_12 ) (* 1 c_13 x ) (* 1 c_14 y ) (* 1 c_15 z ) ) 0) (>= (+ (* (- 1) 1) (* 1 x ) ) 0) (>= (+ (* (- 1) 1) (* 1 y ) ) 0) (>= (+ (* (- 1) 1) (* 1 z ) ) 0) (>= (+ (* 1 _tmp_ c_22 ) (* 1 c_21 ) (* 1 c_23 x ) (* 1 c_24 y ) (* 1 c_25 z ) ) 0) (>= (+ (* 1 _tmp_ c_27 ) (* 1 c_26 ) (* 1 c_28 x ) (* 1 c_29 y ) (* 1 c_30 z ) ) 0) ) (>= (+ (* 1 _r_0 c_35 ) (* 1 _r_2 c_32 ) (* 1 c_31 ) (* 1 c_33 x ) (* (- 1) c_34 ) (* 1 c_34 y ) ) 0) )))
(assert (forall ((_tmp_ Real) (x Real) (y Real) (z Real) (_r_0 Real) (_r_1 Real) (_r_2 Real) (_r_3 Real) ) (=> (and (>= (+ (* (- 1) 1) (* (- 1) _r_0 c_25 ) (* (- 1) _r_2 c_22 ) (* (- 1) c_21 ) (* (- 1) c_23 x ) (* 1 c_24 ) (* (- 1) c_24 y ) ) 0) (>= (+ (* 1 _r_0 ) (* (- 1) _r_2 c_0 ) (* (- 1) c_1 x ) (* 1 c_2 ) (* (- 1) c_2 y ) (* (- 1) c_3 z ) ) 0) (>= (+ (* (- 1) _r_0 ) (* 1 _r_2 c_0 ) (* 1 c_1 x ) (* (- 1) c_2 ) (* 1 c_2 y ) (* 1 c_3 z ) ) 0) (>= (* (- 1) _r_2 ) 0) (>= (+ (* 1 _r_2 ) (* (- 1) _r_3 c_8 ) (* (- 1) c_10 y ) (* (- 1) c_11 z ) (* (- 1) c_9 x ) ) 0) (>= (+ (* (- 1) _r_2 ) (* 1 _r_3 c_8 ) (* 1 c_10 y ) (* 1 c_11 z ) (* 1 c_9 x ) ) 0) (>= (+ (* (- 1) 1) (* 1 _r_3 ) ) 0) (>= (+ (* 1 _r_3 ) (* (- 1) _tmp_ c_12 ) (* (- 1) c_13 x ) (* (- 1) c_14 y ) (* (- 1) c_15 z ) ) 0) (>= (+ (* (- 1) _r_3 ) (* 1 _tmp_ c_12 ) (* 1 c_13 x ) (* 1 c_14 y ) (* 1 c_15 z ) ) 0) (>= (+ (* (- 1) 1) (* 1 x ) ) 0) (>= (+ (* (- 1) 1) (* 1 y ) ) 0) (>= (+ (* (- 1) 1) (* 1 z ) ) 0) (>= (+ (* 1 _tmp_ c_22 ) (* 1 c_21 ) (* 1 c_23 x ) (* 1 c_24 y ) (* 1 c_25 z ) ) 0) (>= (+ (* 1 _tmp_ c_27 ) (* 1 c_26 ) (* 1 c_28 x ) (* 1 c_29 y ) (* 1 c_30 z ) ) 0) ) (>= (+ (* 1 _r_0 c_40 ) (* 1 _r_2 c_37 ) (* 1 c_36 ) (* 1 c_38 x ) (* (- 1) c_39 ) (* 1 c_39 y ) ) 0) )))
(assert (forall ((_tmp_ Real) (x Real) (y Real) (z Real) (_r_0 Real) (_r_1 Real) (_r_2 Real) (_r_3 Real) ) (=> (and (>= (+ (* (- 1) 1) (* (- 1) _r_0 c_30 ) (* (- 1) _r_2 c_27 ) (* (- 1) c_26 ) (* (- 1) c_28 x ) (* 1 c_29 ) (* (- 1) c_29 y ) ) 0) (>= (+ (* 1 _r_0 ) (* (- 1) _r_2 c_0 ) (* (- 1) c_1 x ) (* 1 c_2 ) (* (- 1) c_2 y ) (* (- 1) c_3 z ) ) 0) (>= (+ (* (- 1) _r_0 ) (* 1 _r_2 c_0 ) (* 1 c_1 x ) (* (- 1) c_2 ) (* 1 c_2 y ) (* 1 c_3 z ) ) 0) (>= (* (- 1) _r_2 ) 0) (>= (+ (* 1 _r_2 ) (* (- 1) _r_3 c_8 ) (* (- 1) c_10 y ) (* (- 1) c_11 z ) (* (- 1) c_9 x ) ) 0) (>= (+ (* (- 1) _r_2 ) (* 1 _r_3 c_8 ) (* 1 c_10 y ) (* 1 c_11 z ) (* 1 c_9 x ) ) 0) (>= (+ (* (- 1) 1) (* 1 _r_3 ) ) 0) (>= (+ (* 1 _r_3 ) (* (- 1) _tmp_ c_12 ) (* (- 1) c_13 x ) (* (- 1) c_14 y ) (* (- 1) c_15 z ) ) 0) (>= (+ (* (- 1) _r_3 ) (* 1 _tmp_ c_12 ) (* 1 c_13 x ) (* 1 c_14 y ) (* 1 c_15 z ) ) 0) (>= (+ (* (- 1) 1) (* 1 x ) ) 0) (>= (+ (* (- 1) 1) (* 1 y ) ) 0) (>= (+ (* (- 1) 1) (* 1 z ) ) 0) (>= (+ (* 1 _tmp_ c_22 ) (* 1 c_21 ) (* 1 c_23 x ) (* 1 c_24 y ) (* 1 c_25 z ) ) 0) (>= (+ (* 1 _tmp_ c_27 ) (* 1 c_26 ) (* 1 c_28 x ) (* 1 c_29 y ) (* 1 c_30 z ) ) 0) ) (>= (+ (* 1 _r_0 c_35 ) (* 1 _r_2 c_32 ) (* 1 c_31 ) (* 1 c_33 x ) (* (- 1) c_34 ) (* 1 c_34 y ) ) 0) )))
(assert (forall ((_tmp_ Real) (x Real) (y Real) (z Real) (_r_0 Real) (_r_1 Real) (_r_2 Real) (_r_3 Real) ) (=> (and (>= (+ (* (- 1) 1) (* (- 1) _r_0 c_30 ) (* (- 1) _r_2 c_27 ) (* (- 1) c_26 ) (* (- 1) c_28 x ) (* 1 c_29 ) (* (- 1) c_29 y ) ) 0) (>= (+ (* 1 _r_0 ) (* (- 1) _r_2 c_0 ) (* (- 1) c_1 x ) (* 1 c_2 ) (* (- 1) c_2 y ) (* (- 1) c_3 z ) ) 0) (>= (+ (* (- 1) _r_0 ) (* 1 _r_2 c_0 ) (* 1 c_1 x ) (* (- 1) c_2 ) (* 1 c_2 y ) (* 1 c_3 z ) ) 0) (>= (* (- 1) _r_2 ) 0) (>= (+ (* 1 _r_2 ) (* (- 1) _r_3 c_8 ) (* (- 1) c_10 y ) (* (- 1) c_11 z ) (* (- 1) c_9 x ) ) 0) (>= (+ (* (- 1) _r_2 ) (* 1 _r_3 c_8 ) (* 1 c_10 y ) (* 1 c_11 z ) (* 1 c_9 x ) ) 0) (>= (+ (* (- 1) 1) (* 1 _r_3 ) ) 0) (>= (+ (* 1 _r_3 ) (* (- 1) _tmp_ c_12 ) (* (- 1) c_13 x ) (* (- 1) c_14 y ) (* (- 1) c_15 z ) ) 0) (>= (+ (* (- 1) _r_3 ) (* 1 _tmp_ c_12 ) (* 1 c_13 x ) (* 1 c_14 y ) (* 1 c_15 z ) ) 0) (>= (+ (* (- 1) 1) (* 1 x ) ) 0) (>= (+ (* (- 1) 1) (* 1 y ) ) 0) (>= (+ (* (- 1) 1) (* 1 z ) ) 0) (>= (+ (* 1 _tmp_ c_22 ) (* 1 c_21 ) (* 1 c_23 x ) (* 1 c_24 y ) (* 1 c_25 z ) ) 0) (>= (+ (* 1 _tmp_ c_27 ) (* 1 c_26 ) (* 1 c_28 x ) (* 1 c_29 y ) (* 1 c_30 z ) ) 0) ) (>= (+ (* 1 _r_0 c_40 ) (* 1 _r_2 c_37 ) (* 1 c_36 ) (* 1 c_38 x ) (* (- 1) c_39 ) (* 1 c_39 y ) ) 0) )))
(assert (forall ((_tmp_ Real) (x Real) (y Real) (z Real) (_r_0 Real) (_r_1 Real) (_r_2 Real) (_r_3 Real) ) (=> (and (>= (+ (* (- 1) 1) (* (- 1) _r_0 c_25 ) (* (- 1) _r_2 c_22 ) (* (- 1) c_21 ) (* (- 1) c_23 x ) (* 1 c_24 ) (* (- 1) c_24 y ) ) 0) (>= (+ (* 1 _r_0 ) (* (- 1) _r_2 c_0 ) (* (- 1) c_1 x ) (* 1 c_2 ) (* (- 1) c_2 y ) (* (- 1) c_3 z ) ) 0) (>= (+ (* (- 1) _r_0 ) (* 1 _r_2 c_0 ) (* 1 c_1 x ) (* (- 1) c_2 ) (* 1 c_2 y ) (* 1 c_3 z ) ) 0) (>= (* (- 1) _r_2 ) 0) (>= (+ (* 1 _r_2 ) (* (- 1) _r_3 c_8 ) (* (- 1) c_10 y ) (* (- 1) c_11 z ) (* (- 1) c_9 x ) ) 0) (>= (+ (* (- 1) _r_2 ) (* 1 _r_3 c_8 ) (* 1 c_10 y ) (* 1 c_11 z ) (* 1 c_9 x ) ) 0) (>= (+ (* (- 1) 1) (* 1 _r_3 ) ) 0) (>= (+ (* 1 _r_3 ) (* (- 1) _tmp_ c_12 ) (* (- 1) c_13 x ) (* (- 1) c_14 y ) (* (- 1) c_15 z ) ) 0) (>= (+ (* (- 1) _r_3 ) (* 1 _tmp_ c_12 ) (* 1 c_13 x ) (* 1 c_14 y ) (* 1 c_15 z ) ) 0) (>= (+ (* (- 1) 1) (* 1 x ) ) 0) (>= (+ (* (- 1) 1) (* 1 y ) ) 0) (>= (+ (* (- 1) 1) (* 1 z ) ) 0) (>= (+ (* 1 _tmp_ c_32 ) (* 1 c_31 ) (* 1 c_33 x ) (* 1 c_34 y ) (* 1 c_35 z ) ) 0) (>= (+ (* 1 _tmp_ c_37 ) (* 1 c_36 ) (* 1 c_38 x ) (* 1 c_39 y ) (* 1 c_40 z ) ) 0) ) (>= (+ (* 1 _r_0 c_35 ) (* 1 _r_2 c_32 ) (* 1 c_31 ) (* 1 c_33 x ) (* (- 1) c_34 ) (* 1 c_34 y ) ) 0) )))
(assert (forall ((_tmp_ Real) (x Real) (y Real) (z Real) (_r_0 Real) (_r_1 Real) (_r_2 Real) (_r_3 Real) ) (=> (and (>= (+ (* (- 1) 1) (* (- 1) _r_0 c_25 ) (* (- 1) _r_2 c_22 ) (* (- 1) c_21 ) (* (- 1) c_23 x ) (* 1 c_24 ) (* (- 1) c_24 y ) ) 0) (>= (+ (* 1 _r_0 ) (* (- 1) _r_2 c_0 ) (* (- 1) c_1 x ) (* 1 c_2 ) (* (- 1) c_2 y ) (* (- 1) c_3 z ) ) 0) (>= (+ (* (- 1) _r_0 ) (* 1 _r_2 c_0 ) (* 1 c_1 x ) (* (- 1) c_2 ) (* 1 c_2 y ) (* 1 c_3 z ) ) 0) (>= (* (- 1) _r_2 ) 0) (>= (+ (* 1 _r_2 ) (* (- 1) _r_3 c_8 ) (* (- 1) c_10 y ) (* (- 1) c_11 z ) (* (- 1) c_9 x ) ) 0) (>= (+ (* (- 1) _r_2 ) (* 1 _r_3 c_8 ) (* 1 c_10 y ) (* 1 c_11 z ) (* 1 c_9 x ) ) 0) (>= (+ (* (- 1) 1) (* 1 _r_3 ) ) 0) (>= (+ (* 1 _r_3 ) (* (- 1) _tmp_ c_12 ) (* (- 1) c_13 x ) (* (- 1) c_14 y ) (* (- 1) c_15 z ) ) 0) (>= (+ (* (- 1) _r_3 ) (* 1 _tmp_ c_12 ) (* 1 c_13 x ) (* 1 c_14 y ) (* 1 c_15 z ) ) 0) (>= (+ (* (- 1) 1) (* 1 x ) ) 0) (>= (+ (* (- 1) 1) (* 1 y ) ) 0) (>= (+ (* (- 1) 1) (* 1 z ) ) 0) (>= (+ (* 1 _tmp_ c_32 ) (* 1 c_31 ) (* 1 c_33 x ) (* 1 c_34 y ) (* 1 c_35 z ) ) 0) (>= (+ (* 1 _tmp_ c_37 ) (* 1 c_36 ) (* 1 c_38 x ) (* 1 c_39 y ) (* 1 c_40 z ) ) 0) ) (>= (+ (* 1 _r_0 c_40 ) (* 1 _r_2 c_37 ) (* 1 c_36 ) (* 1 c_38 x ) (* (- 1) c_39 ) (* 1 c_39 y ) ) 0) )))
(assert (forall ((_tmp_ Real) (x Real) (y Real) (z Real) (_r_0 Real) (_r_1 Real) (_r_2 Real) (_r_3 Real) ) (=> (and (>= (+ (* (- 1) 1) (* (- 1) _r_0 c_30 ) (* (- 1) _r_2 c_27 ) (* (- 1) c_26 ) (* (- 1) c_28 x ) (* 1 c_29 ) (* (- 1) c_29 y ) ) 0) (>= (+ (* 1 _r_0 ) (* (- 1) _r_2 c_0 ) (* (- 1) c_1 x ) (* 1 c_2 ) (* (- 1) c_2 y ) (* (- 1) c_3 z ) ) 0) (>= (+ (* (- 1) _r_0 ) (* 1 _r_2 c_0 ) (* 1 c_1 x ) (* (- 1) c_2 ) (* 1 c_2 y ) (* 1 c_3 z ) ) 0) (>= (* (- 1) _r_2 ) 0) (>= (+ (* 1 _r_2 ) (* (- 1) _r_3 c_8 ) (* (- 1) c_10 y ) (* (- 1) c_11 z ) (* (- 1) c_9 x ) ) 0) (>= (+ (* (- 1) _r_2 ) (* 1 _r_3 c_8 ) (* 1 c_10 y ) (* 1 c_11 z ) (* 1 c_9 x ) ) 0) (>= (+ (* (- 1) 1) (* 1 _r_3 ) ) 0) (>= (+ (* 1 _r_3 ) (* (- 1) _tmp_ c_12 ) (* (- 1) c_13 x ) (* (- 1) c_14 y ) (* (- 1) c_15 z ) ) 0) (>= (+ (* (- 1) _r_3 ) (* 1 _tmp_ c_12 ) (* 1 c_13 x ) (* 1 c_14 y ) (* 1 c_15 z ) ) 0) (>= (+ (* (- 1) 1) (* 1 x ) ) 0) (>= (+ (* (- 1) 1) (* 1 y ) ) 0) (>= (+ (* (- 1) 1) (* 1 z ) ) 0) (>= (+ (* 1 _tmp_ c_32 ) (* 1 c_31 ) (* 1 c_33 x ) (* 1 c_34 y ) (* 1 c_35 z ) ) 0) (>= (+ (* 1 _tmp_ c_37 ) (* 1 c_36 ) (* 1 c_38 x ) (* 1 c_39 y ) (* 1 c_40 z ) ) 0) ) (>= (+ (* 1 _r_0 c_35 ) (* 1 _r_2 c_32 ) (* 1 c_31 ) (* 1 c_33 x ) (* (- 1) c_34 ) (* 1 c_34 y ) ) 0) )))
(assert (forall ((_tmp_ Real) (x Real) (y Real) (z Real) (_r_0 Real) (_r_1 Real) (_r_2 Real) (_r_3 Real) ) (=> (and (>= (+ (* (- 1) 1) (* (- 1) _r_0 c_30 ) (* (- 1) _r_2 c_27 ) (* (- 1) c_26 ) (* (- 1) c_28 x ) (* 1 c_29 ) (* (- 1) c_29 y ) ) 0) (>= (+ (* 1 _r_0 ) (* (- 1) _r_2 c_0 ) (* (- 1) c_1 x ) (* 1 c_2 ) (* (- 1) c_2 y ) (* (- 1) c_3 z ) ) 0) (>= (+ (* (- 1) _r_0 ) (* 1 _r_2 c_0 ) (* 1 c_1 x ) (* (- 1) c_2 ) (* 1 c_2 y ) (* 1 c_3 z ) ) 0) (>= (* (- 1) _r_2 ) 0) (>= (+ (* 1 _r_2 ) (* (- 1) _r_3 c_8 ) (* (- 1) c_10 y ) (* (- 1) c_11 z ) (* (- 1) c_9 x ) ) 0) (>= (+ (* (- 1) _r_2 ) (* 1 _r_3 c_8 ) (* 1 c_10 y ) (* 1 c_11 z ) (* 1 c_9 x ) ) 0) (>= (+ (* (- 1) 1) (* 1 _r_3 ) ) 0) (>= (+ (* 1 _r_3 ) (* (- 1) _tmp_ c_12 ) (* (- 1) c_13 x ) (* (- 1) c_14 y ) (* (- 1) c_15 z ) ) 0) (>= (+ (* (- 1) _r_3 ) (* 1 _tmp_ c_12 ) (* 1 c_13 x ) (* 1 c_14 y ) (* 1 c_15 z ) ) 0) (>= (+ (* (- 1) 1) (* 1 x ) ) 0) (>= (+ (* (- 1) 1) (* 1 y ) ) 0) (>= (+ (* (- 1) 1) (* 1 z ) ) 0) (>= (+ (* 1 _tmp_ c_32 ) (* 1 c_31 ) (* 1 c_33 x ) (* 1 c_34 y ) (* 1 c_35 z ) ) 0) (>= (+ (* 1 _tmp_ c_37 ) (* 1 c_36 ) (* 1 c_38 x ) (* 1 c_39 y ) (* 1 c_40 z ) ) 0) ) (>= (+ (* 1 _r_0 c_40 ) (* 1 _r_2 c_37 ) (* 1 c_36 ) (* 1 c_38 x ) (* (- 1) c_39 ) (* 1 c_39 y ) ) 0) )))
(assert (forall ((_tmp_ Real) (x Real) (y Real) (z Real) (_r_0 Real) (_r_1 Real) (_r_2 Real) (_r_3 Real) ) (=> (and (>= (+ (* (- 1) 1) (* (- 1) _r_1 c_23 ) (* (- 1) _r_2 c_22 ) (* (- 1) c_21 ) (* (- 1) c_24 y ) (* 1 c_25 ) (* (- 1) c_25 z ) ) 0) (>= (+ (* 1 _r_1 ) (* (- 1) _r_2 c_4 ) (* (- 1) c_5 x ) (* (- 1) c_6 y ) (* 1 c_7 ) (* (- 1) c_7 z ) ) 0) (>= (+ (* (- 1) _r_1 ) (* 1 _r_2 c_4 ) (* 1 c_5 x ) (* 1 c_6 y ) (* (- 1) c_7 ) (* 1 c_7 z ) ) 0) (>= (+ (* (- 1) 1) (* 1 _r_2 ) ) 0) (>= (+ (* 1 _r_2 ) (* (- 1) _r_3 c_8 ) (* (- 1) c_10 y ) (* (- 1) c_11 z ) (* (- 1) c_9 x ) ) 0) (>= (+ (* (- 1) _r_2 ) (* 1 _r_3 c_8 ) (* 1 c_10 y ) (* 1 c_11 z ) (* 1 c_9 x ) ) 0) (>= (+ (* (- 1) 1) (* 1 _r_3 ) ) 0) (>= (+ (* 1 _r_3 ) (* (- 1) _tmp_ c_12 ) (* (- 1) c_13 x ) (* (- 1) c_14 y ) (* (- 1) c_15 z ) ) 0) (>= (+ (* (- 1) _r_3 ) (* 1 _tmp_ c_12 ) (* 1 c_13 x ) (* 1 c_14 y ) (* 1 c_15 z ) ) 0) (>= (+ (* (- 1) 1) (* 1 x ) ) 0) (>= (+ (* (- 1) 1) (* 1 y ) ) 0) (>= (+ (* (- 1) 1) (* 1 z ) ) 0) (>= (+ (* 1 _tmp_ c_22 ) (* 1 c_21 ) (* 1 c_23 x ) (* 1 c_24 y ) (* 1 c_25 z ) ) 0) (>= (+ (* 1 _tmp_ c_27 ) (* 1 c_26 ) (* 1 c_28 x ) (* 1 c_29 y ) (* 1 c_30 z ) ) 0) ) (>= (+ (* 1 _r_1 c_33 ) (* 1 _r_2 c_32 ) (* 1 c_31 ) (* 1 c_34 y ) (* (- 1) c_35 ) (* 1 c_35 z ) ) 0) )))
(assert (forall ((_tmp_ Real) (x Real) (y Real) (z Real) (_r_0 Real) (_r_1 Real) (_r_2 Real) (_r_3 Real) ) (=> (and (>= (+ (* (- 1) 1) (* (- 1) _r_1 c_23 ) (* (- 1) _r_2 c_22 ) (* (- 1) c_21 ) (* (- 1) c_24 y ) (* 1 c_25 ) (* (- 1) c_25 z ) ) 0) (>= (+ (* 1 _r_1 ) (* (- 1) _r_2 c_4 ) (* (- 1) c_5 x ) (* (- 1) c_6 y ) (* 1 c_7 ) (* (- 1) c_7 z ) ) 0) (>= (+ (* (- 1) _r_1 ) (* 1 _r_2 c_4 ) (* 1 c_5 x ) (* 1 c_6 y ) (* (- 1) c_7 ) (* 1 c_7 z ) ) 0) (>= (+ (* (- 1) 1) (* 1 _r_2 ) ) 0) (>= (+ (* 1 _r_2 ) (* (- 1) _r_3 c_8 ) (* (- 1) c_10 y ) (* (- 1) c_11 z ) (* (- 1) c_9 x ) ) 0) (>= (+ (* (- 1) _r_2 ) (* 1 _r_3 c_8 ) (* 1 c_10 y ) (* 1 c_11 z ) (* 1 c_9 x ) ) 0) (>= (+ (* (- 1) 1) (* 1 _r_3 ) ) 0) (>= (+ (* 1 _r_3 ) (* (- 1) _tmp_ c_12 ) (* (- 1) c_13 x ) (* (- 1) c_14 y ) (* (- 1) c_15 z ) ) 0) (>= (+ (* (- 1) _r_3 ) (* 1 _tmp_ c_12 ) (* 1 c_13 x ) (* 1 c_14 y ) (* 1 c_15 z ) ) 0) (>= (+ (* (- 1) 1) (* 1 x ) ) 0) (>= (+ (* (- 1) 1) (* 1 y ) ) 0) (>= (+ (* (- 1) 1) (* 1 z ) ) 0) (>= (+ (* 1 _tmp_ c_22 ) (* 1 c_21 ) (* 1 c_23 x ) (* 1 c_24 y ) (* 1 c_25 z ) ) 0) (>= (+ (* 1 _tmp_ c_27 ) (* 1 c_26 ) (* 1 c_28 x ) (* 1 c_29 y ) (* 1 c_30 z ) ) 0) ) (>= (+ (* 1 _r_1 c_38 ) (* 1 _r_2 c_37 ) (* 1 c_36 ) (* 1 c_39 y ) (* (- 1) c_40 ) (* 1 c_40 z ) ) 0) )))
(assert (forall ((_tmp_ Real) (x Real) (y Real) (z Real) (_r_0 Real) (_r_1 Real) (_r_2 Real) (_r_3 Real) ) (=> (and (>= (+ (* (- 1) 1) (* (- 1) _r_1 c_28 ) (* (- 1) _r_2 c_27 ) (* (- 1) c_26 ) (* (- 1) c_29 y ) (* 1 c_30 ) (* (- 1) c_30 z ) ) 0) (>= (+ (* 1 _r_1 ) (* (- 1) _r_2 c_4 ) (* (- 1) c_5 x ) (* (- 1) c_6 y ) (* 1 c_7 ) (* (- 1) c_7 z ) ) 0) (>= (+ (* (- 1) _r_1 ) (* 1 _r_2 c_4 ) (* 1 c_5 x ) (* 1 c_6 y ) (* (- 1) c_7 ) (* 1 c_7 z ) ) 0) (>= (+ (* (- 1) 1) (* 1 _r_2 ) ) 0) (>= (+ (* 1 _r_2 ) (* (- 1) _r_3 c_8 ) (* (- 1) c_10 y ) (* (- 1) c_11 z ) (* (- 1) c_9 x ) ) 0) (>= (+ (* (- 1) _r_2 ) (* 1 _r_3 c_8 ) (* 1 c_10 y ) (* 1 c_11 z ) (* 1 c_9 x ) ) 0) (>= (+ (* (- 1) 1) (* 1 _r_3 ) ) 0) (>= (+ (* 1 _r_3 ) (* (- 1) _tmp_ c_12 ) (* (- 1) c_13 x ) (* (- 1) c_14 y ) (* (- 1) c_15 z ) ) 0) (>= (+ (* (- 1) _r_3 ) (* 1 _tmp_ c_12 ) (* 1 c_13 x ) (* 1 c_14 y ) (* 1 c_15 z ) ) 0) (>= (+ (* (- 1) 1) (* 1 x ) ) 0) (>= (+ (* (- 1) 1) (* 1 y ) ) 0) (>= (+ (* (- 1) 1) (* 1 z ) ) 0) (>= (+ (* 1 _tmp_ c_22 ) (* 1 c_21 ) (* 1 c_23 x ) (* 1 c_24 y ) (* 1 c_25 z ) ) 0) (>= (+ (* 1 _tmp_ c_27 ) (* 1 c_26 ) (* 1 c_28 x ) (* 1 c_29 y ) (* 1 c_30 z ) ) 0) ) (>= (+ (* 1 _r_1 c_33 ) (* 1 _r_2 c_32 ) (* 1 c_31 ) (* 1 c_34 y ) (* (- 1) c_35 ) (* 1 c_35 z ) ) 0) )))
(assert (forall ((_tmp_ Real) (x Real) (y Real) (z Real) (_r_0 Real) (_r_1 Real) (_r_2 Real) (_r_3 Real) ) (=> (and (>= (+ (* (- 1) 1) (* (- 1) _r_1 c_28 ) (* (- 1) _r_2 c_27 ) (* (- 1) c_26 ) (* (- 1) c_29 y ) (* 1 c_30 ) (* (- 1) c_30 z ) ) 0) (>= (+ (* 1 _r_1 ) (* (- 1) _r_2 c_4 ) (* (- 1) c_5 x ) (* (- 1) c_6 y ) (* 1 c_7 ) (* (- 1) c_7 z ) ) 0) (>= (+ (* (- 1) _r_1 ) (* 1 _r_2 c_4 ) (* 1 c_5 x ) (* 1 c_6 y ) (* (- 1) c_7 ) (* 1 c_7 z ) ) 0) (>= (+ (* (- 1) 1) (* 1 _r_2 ) ) 0) (>= (+ (* 1 _r_2 ) (* (- 1) _r_3 c_8 ) (* (- 1) c_10 y ) (* (- 1) c_11 z ) (* (- 1) c_9 x ) ) 0) (>= (+ (* (- 1) _r_2 ) (* 1 _r_3 c_8 ) (* 1 c_10 y ) (* 1 c_11 z ) (* 1 c_9 x ) ) 0) (>= (+ (* (- 1) 1) (* 1 _r_3 ) ) 0) (>= (+ (* 1 _r_3 ) (* (- 1) _tmp_ c_12 ) (* (- 1) c_13 x ) (* (- 1) c_14 y ) (* (- 1) c_15 z ) ) 0) (>= (+ (* (- 1) _r_3 ) (* 1 _tmp_ c_12 ) (* 1 c_13 x ) (* 1 c_14 y ) (* 1 c_15 z ) ) 0) (>= (+ (* (- 1) 1) (* 1 x ) ) 0) (>= (+ (* (- 1) 1) (* 1 y ) ) 0) (>= (+ (* (- 1) 1) (* 1 z ) ) 0) (>= (+ (* 1 _tmp_ c_22 ) (* 1 c_21 ) (* 1 c_23 x ) (* 1 c_24 y ) (* 1 c_25 z ) ) 0) (>= (+ (* 1 _tmp_ c_27 ) (* 1 c_26 ) (* 1 c_28 x ) (* 1 c_29 y ) (* 1 c_30 z ) ) 0) ) (>= (+ (* 1 _r_1 c_38 ) (* 1 _r_2 c_37 ) (* 1 c_36 ) (* 1 c_39 y ) (* (- 1) c_40 ) (* 1 c_40 z ) ) 0) )))
(assert (forall ((_tmp_ Real) (x Real) (y Real) (z Real) (_r_0 Real) (_r_1 Real) (_r_2 Real) (_r_3 Real) ) (=> (and (>= (+ (* (- 1) 1) (* (- 1) _r_1 c_23 ) (* (- 1) _r_2 c_22 ) (* (- 1) c_21 ) (* (- 1) c_24 y ) (* 1 c_25 ) (* (- 1) c_25 z ) ) 0) (>= (+ (* 1 _r_1 ) (* (- 1) _r_2 c_4 ) (* (- 1) c_5 x ) (* (- 1) c_6 y ) (* 1 c_7 ) (* (- 1) c_7 z ) ) 0) (>= (+ (* (- 1) _r_1 ) (* 1 _r_2 c_4 ) (* 1 c_5 x ) (* 1 c_6 y ) (* (- 1) c_7 ) (* 1 c_7 z ) ) 0) (>= (+ (* (- 1) 1) (* 1 _r_2 ) ) 0) (>= (+ (* 1 _r_2 ) (* (- 1) _r_3 c_8 ) (* (- 1) c_10 y ) (* (- 1) c_11 z ) (* (- 1) c_9 x ) ) 0) (>= (+ (* (- 1) _r_2 ) (* 1 _r_3 c_8 ) (* 1 c_10 y ) (* 1 c_11 z ) (* 1 c_9 x ) ) 0) (>= (+ (* (- 1) 1) (* 1 _r_3 ) ) 0) (>= (+ (* 1 _r_3 ) (* (- 1) _tmp_ c_12 ) (* (- 1) c_13 x ) (* (- 1) c_14 y ) (* (- 1) c_15 z ) ) 0) (>= (+ (* (- 1) _r_3 ) (* 1 _tmp_ c_12 ) (* 1 c_13 x ) (* 1 c_14 y ) (* 1 c_15 z ) ) 0) (>= (+ (* (- 1) 1) (* 1 x ) ) 0) (>= (+ (* (- 1) 1) (* 1 y ) ) 0) (>= (+ (* (- 1) 1) (* 1 z ) ) 0) (>= (+ (* 1 _tmp_ c_32 ) (* 1 c_31 ) (* 1 c_33 x ) (* 1 c_34 y ) (* 1 c_35 z ) ) 0) (>= (+ (* 1 _tmp_ c_37 ) (* 1 c_36 ) (* 1 c_38 x ) (* 1 c_39 y ) (* 1 c_40 z ) ) 0) ) (>= (+ (* 1 _r_1 c_33 ) (* 1 _r_2 c_32 ) (* 1 c_31 ) (* 1 c_34 y ) (* (- 1) c_35 ) (* 1 c_35 z ) ) 0) )))
(assert (forall ((_tmp_ Real) (x Real) (y Real) (z Real) (_r_0 Real) (_r_1 Real) (_r_2 Real) (_r_3 Real) ) (=> (and (>= (+ (* (- 1) 1) (* (- 1) _r_1 c_23 ) (* (- 1) _r_2 c_22 ) (* (- 1) c_21 ) (* (- 1) c_24 y ) (* 1 c_25 ) (* (- 1) c_25 z ) ) 0) (>= (+ (* 1 _r_1 ) (* (- 1) _r_2 c_4 ) (* (- 1) c_5 x ) (* (- 1) c_6 y ) (* 1 c_7 ) (* (- 1) c_7 z ) ) 0) (>= (+ (* (- 1) _r_1 ) (* 1 _r_2 c_4 ) (* 1 c_5 x ) (* 1 c_6 y ) (* (- 1) c_7 ) (* 1 c_7 z ) ) 0) (>= (+ (* (- 1) 1) (* 1 _r_2 ) ) 0) (>= (+ (* 1 _r_2 ) (* (- 1) _r_3 c_8 ) (* (- 1) c_10 y ) (* (- 1) c_11 z ) (* (- 1) c_9 x ) ) 0) (>= (+ (* (- 1) _r_2 ) (* 1 _r_3 c_8 ) (* 1 c_10 y ) (* 1 c_11 z ) (* 1 c_9 x ) ) 0) (>= (+ (* (- 1) 1) (* 1 _r_3 ) ) 0) (>= (+ (* 1 _r_3 ) (* (- 1) _tmp_ c_12 ) (* (- 1) c_13 x ) (* (- 1) c_14 y ) (* (- 1) c_15 z ) ) 0) (>= (+ (* (- 1) _r_3 ) (* 1 _tmp_ c_12 ) (* 1 c_13 x ) (* 1 c_14 y ) (* 1 c_15 z ) ) 0) (>= (+ (* (- 1) 1) (* 1 x ) ) 0) (>= (+ (* (- 1) 1) (* 1 y ) ) 0) (>= (+ (* (- 1) 1) (* 1 z ) ) 0) (>= (+ (* 1 _tmp_ c_32 ) (* 1 c_31 ) (* 1 c_33 x ) (* 1 c_34 y ) (* 1 c_35 z ) ) 0) (>= (+ (* 1 _tmp_ c_37 ) (* 1 c_36 ) (* 1 c_38 x ) (* 1 c_39 y ) (* 1 c_40 z ) ) 0) ) (>= (+ (* 1 _r_1 c_38 ) (* 1 _r_2 c_37 ) (* 1 c_36 ) (* 1 c_39 y ) (* (- 1) c_40 ) (* 1 c_40 z ) ) 0) )))
(assert (forall ((_tmp_ Real) (x Real) (y Real) (z Real) (_r_0 Real) (_r_1 Real) (_r_2 Real) (_r_3 Real) ) (=> (and (>= (+ (* (- 1) 1) (* (- 1) _r_1 c_28 ) (* (- 1) _r_2 c_27 ) (* (- 1) c_26 ) (* (- 1) c_29 y ) (* 1 c_30 ) (* (- 1) c_30 z ) ) 0) (>= (+ (* 1 _r_1 ) (* (- 1) _r_2 c_4 ) (* (- 1) c_5 x ) (* (- 1) c_6 y ) (* 1 c_7 ) (* (- 1) c_7 z ) ) 0) (>= (+ (* (- 1) _r_1 ) (* 1 _r_2 c_4 ) (* 1 c_5 x ) (* 1 c_6 y ) (* (- 1) c_7 ) (* 1 c_7 z ) ) 0) (>= (+ (* (- 1) 1) (* 1 _r_2 ) ) 0) (>= (+ (* 1 _r_2 ) (* (- 1) _r_3 c_8 ) (* (- 1) c_10 y ) (* (- 1) c_11 z ) (* (- 1) c_9 x ) ) 0) (>= (+ (* (- 1) _r_2 ) (* 1 _r_3 c_8 ) (* 1 c_10 y ) (* 1 c_11 z ) (* 1 c_9 x ) ) 0) (>= (+ (* (- 1) 1) (* 1 _r_3 ) ) 0) (>= (+ (* 1 _r_3 ) (* (- 1) _tmp_ c_12 ) (* (- 1) c_13 x ) (* (- 1) c_14 y ) (* (- 1) c_15 z ) ) 0) (>= (+ (* (- 1) _r_3 ) (* 1 _tmp_ c_12 ) (* 1 c_13 x ) (* 1 c_14 y ) (* 1 c_15 z ) ) 0) (>= (+ (* (- 1) 1) (* 1 x ) ) 0) (>= (+ (* (- 1) 1) (* 1 y ) ) 0) (>= (+ (* (- 1) 1) (* 1 z ) ) 0) (>= (+ (* 1 _tmp_ c_32 ) (* 1 c_31 ) (* 1 c_33 x ) (* 1 c_34 y ) (* 1 c_35 z ) ) 0) (>= (+ (* 1 _tmp_ c_37 ) (* 1 c_36 ) (* 1 c_38 x ) (* 1 c_39 y ) (* 1 c_40 z ) ) 0) ) (>= (+ (* 1 _r_1 c_33 ) (* 1 _r_2 c_32 ) (* 1 c_31 ) (* 1 c_34 y ) (* (- 1) c_35 ) (* 1 c_35 z ) ) 0) )))
(assert (forall ((_tmp_ Real) (x Real) (y Real) (z Real) (_r_0 Real) (_r_1 Real) (_r_2 Real) (_r_3 Real) ) (=> (and (>= (+ (* (- 1) 1) (* (- 1) _r_1 c_28 ) (* (- 1) _r_2 c_27 ) (* (- 1) c_26 ) (* (- 1) c_29 y ) (* 1 c_30 ) (* (- 1) c_30 z ) ) 0) (>= (+ (* 1 _r_1 ) (* (- 1) _r_2 c_4 ) (* (- 1) c_5 x ) (* (- 1) c_6 y ) (* 1 c_7 ) (* (- 1) c_7 z ) ) 0) (>= (+ (* (- 1) _r_1 ) (* 1 _r_2 c_4 ) (* 1 c_5 x ) (* 1 c_6 y ) (* (- 1) c_7 ) (* 1 c_7 z ) ) 0) (>= (+ (* (- 1) 1) (* 1 _r_2 ) ) 0) (>= (+ (* 1 _r_2 ) (* (- 1) _r_3 c_8 ) (* (- 1) c_10 y ) (* (- 1) c_11 z ) (* (- 1) c_9 x ) ) 0) (>= (+ (* (- 1) _r_2 ) (* 1 _r_3 c_8 ) (* 1 c_10 y ) (* 1 c_11 z ) (* 1 c_9 x ) ) 0) (>= (+ (* (- 1) 1) (* 1 _r_3 ) ) 0) (>= (+ (* 1 _r_3 ) (* (- 1) _tmp_ c_12 ) (* (- 1) c_13 x ) (* (- 1) c_14 y ) (* (- 1) c_15 z ) ) 0) (>= (+ (* (- 1) _r_3 ) (* 1 _tmp_ c_12 ) (* 1 c_13 x ) (* 1 c_14 y ) (* 1 c_15 z ) ) 0) (>= (+ (* (- 1) 1) (* 1 x ) ) 0) (>= (+ (* (- 1) 1) (* 1 y ) ) 0) (>= (+ (* (- 1) 1) (* 1 z ) ) 0) (>= (+ (* 1 _tmp_ c_32 ) (* 1 c_31 ) (* 1 c_33 x ) (* 1 c_34 y ) (* 1 c_35 z ) ) 0) (>= (+ (* 1 _tmp_ c_37 ) (* 1 c_36 ) (* 1 c_38 x ) (* 1 c_39 y ) (* 1 c_40 z ) ) 0) ) (>= (+ (* 1 _r_1 c_38 ) (* 1 _r_2 c_37 ) (* 1 c_36 ) (* 1 c_39 y ) (* (- 1) c_40 ) (* 1 c_40 z ) ) 0) )))
(assert (forall ((_tmp_ Real) (x Real) (y Real) (z Real) (_r_0 Real) (_r_1 Real) (_r_2 Real) (_r_3 Real) ) (=> (and (>= (* (- 1) x ) 0) (>= (+ (* 1 _tmp_ c_22 ) (* 1 c_21 ) (* 1 c_23 x ) (* 1 c_24 y ) (* 1 c_25 z ) ) 0) (>= (+ (* 1 _tmp_ c_27 ) (* 1 c_26 ) (* 1 c_28 x ) (* 1 c_29 y ) (* 1 c_30 z ) ) 0) ) (>= (* 1 c_16 ) 0) )))
(assert (forall ((_tmp_ Real) (x Real) (y Real) (z Real) (_r_0 Real) (_r_1 Real) (_r_2 Real) (_r_3 Real) ) (=> (and (>= (* (- 1) x ) 0) (>= (+ (* 1 _tmp_ c_32 ) (* 1 c_31 ) (* 1 c_33 x ) (* 1 c_34 y ) (* 1 c_35 z ) ) 0) (>= (+ (* 1 _tmp_ c_37 ) (* 1 c_36 ) (* 1 c_38 x ) (* 1 c_39 y ) (* 1 c_40 z ) ) 0) ) (>= (* 1 c_16 ) 0) )))
(assert (forall ((_tmp_ Real) (x Real) (y Real) (z Real) (_r_0 Real) (_r_1 Real) (_r_2 Real) (_r_3 Real) ) (=> (and (>= (* (- 1) y ) 0) (>= (+ (* 1 _tmp_ c_22 ) (* 1 c_21 ) (* 1 c_23 x ) (* 1 c_24 y ) (* 1 c_25 z ) ) 0) (>= (+ (* 1 _tmp_ c_27 ) (* 1 c_26 ) (* 1 c_28 x ) (* 1 c_29 y ) (* 1 c_30 z ) ) 0) ) (>= (* 1 c_16 ) 0) )))
(assert (forall ((_tmp_ Real) (x Real) (y Real) (z Real) (_r_0 Real) (_r_1 Real) (_r_2 Real) (_r_3 Real) ) (=> (and (>= (* (- 1) y ) 0) (>= (+ (* 1 _tmp_ c_32 ) (* 1 c_31 ) (* 1 c_33 x ) (* 1 c_34 y ) (* 1 c_35 z ) ) 0) (>= (+ (* 1 _tmp_ c_37 ) (* 1 c_36 ) (* 1 c_38 x ) (* 1 c_39 y ) (* 1 c_40 z ) ) 0) ) (>= (* 1 c_16 ) 0) )))
(assert (forall ((_tmp_ Real) (x Real) (y Real) (z Real) (_r_0 Real) (_r_1 Real) (_r_2 Real) (_r_3 Real) ) (=> (and (>= (* (- 1) z ) 0) (>= (+ (* 1 _tmp_ c_22 ) (* 1 c_21 ) (* 1 c_23 x ) (* 1 c_24 y ) (* 1 c_25 z ) ) 0) (>= (+ (* 1 _tmp_ c_27 ) (* 1 c_26 ) (* 1 c_28 x ) (* 1 c_29 y ) (* 1 c_30 z ) ) 0) ) (>= (* 1 c_16 ) 0) )))
(assert (forall ((_tmp_ Real) (x Real) (y Real) (z Real) (_r_0 Real) (_r_1 Real) (_r_2 Real) (_r_3 Real) ) (=> (and (>= (* (- 1) z ) 0) (>= (+ (* 1 _tmp_ c_32 ) (* 1 c_31 ) (* 1 c_33 x ) (* 1 c_34 y ) (* 1 c_35 z ) ) 0) (>= (+ (* 1 _tmp_ c_37 ) (* 1 c_36 ) (* 1 c_38 x ) (* 1 c_39 y ) (* 1 c_40 z ) ) 0) ) (>= (* 1 c_16 ) 0) )))
(check-sat)
(get-model)

